  7	52
 20
  0	 47	  6	 38	 58	 46	 48	 49	 98	 22	100	 36	101	 99	 74	 90	 88	 25	 77	105	
 16
  0	 30	 24	 23	 76	 20	 82	 75	 72	  4	 56	 31	 27	 83	 79	105	
 14
  0	  5	 19	 52	 71	104	  9	 29	 57	 61	 41	 81	 93	105	
 22
  0	 15	 10	 12	 50	 64	 67	 62	 14	 34	 37	 66	102	 13	 86	 89	  2	 21	 54	 73	 65	105	
 14
  0	 16	 68	 32	 43	 39	 84	 95	 44	 11	 96	 91	 63	105	
 18
  0	 33	 35	  7	 17	 51	 85	 87	 69	 59	 18	103	  3	 70	 55	 45	 97	105	
 14
  0	  8	 60	 40	 28	  1	 80	 42	 53	 92	 94	 26	 78	105	
